Route #1: 34 46 8 52 27 4
Route #2: 25 55 31 10 38 58
Route #3: 11 59 14 53 7
Route #4: 35 19 54 13 57 15 29 45
Route #5: 50 18 24 49 56 23 63 16
Route #6: 33 1 43 41 42 64 22
Route #7: 17 32 9 39 12
Route #8: 40 44 3 51 6 2
Route #9: 5 37 20 60 36 47 48
Route #10: 30 21 61 28 62 26
Cost 832